p tw 49 57
1 2
2 13
3 4
4 5
5 6
6 7
6 25
7 8
8 9
9 10
9 11
10 11
11 12
12 14
13 24
14 15
14 25
15 16
15 25
16 17
17 18
18 19
19 20
20 21
21 22
21 25
22 23
23 25
24 35
25 26
26 27
27 28
28 29
28 30
29 30
30 31
31 32
32 33
32 3
33 34
33 36
34 43
35 45
36 37
37 38
37 41
38 39
39 40
40 43
41 42
42 43
43 44
45 46
46 47
47 48
48 49
49 3
